c --- [ banner ] -------------------------------------------------------------
c 
c CaDiCaL Radically Simplified CDCL SAT Solver
c Copyright (c) 2016-2021 A. Biere, M. Fleury, N. Froleyks
c 
c Version 1.5.2 a5f15211db36c3956764e18194dd5bd63bf3b5e6
c g++ (GCC) 9.3.0 -Wall -Wextra -O3 -DNDEBUG
c Fri Oct 21 01:27:37 EDT 2022 Linux gra-login3 3.10.0-1160.66.1.el7.x86_64 x86_64
c 
c --- [ limit ] --------------------------------------------------------------
c 
c setting conflict limit to 200000 conflicts (due to '200000')
c 
c --- [ parsing input ] ------------------------------------------------------
c 
c reading DIMACS file from '45.cubes144.adj'
c opening file to read '45.cubes144.adj'
c found 'p cnf 6160 1595484' header
c parsed 1595484 clauses in 18.92 seconds process time
c closing file '45.cubes144.adj'
c after reading 1457566838 bytes 1390.0 MB
c 
c --- [ options ] ------------------------------------------------------------
c 
c all options are set to their default value
c 
c --- [ solving ] ------------------------------------------------------------
c 
c time measured in process time since initialization
c 
c  seconds    reductions  redundant   irredundant
c          MB     restarts       trail       variables
c            level   conflicts       glue         remaining
c 
c * 18.92 1393  0 0   0    0    0  0% 0 1595422 2203 36%
c { 20.00 1450  0 0   0    0    0  0% 0 1595422 2203 36%
c i 22.56 1498 437 0   2   77   71 27% 5 1595422 2196 36%
c i 24.40 1519 293 0  12  122  112 28% 11 1595422 2195 36%
c i 26.96 1529 184 0  42  260  233 28% 24 1595422 2194 36%
c i 27.19 1530 172 0  42  283  254 28% 23 1595422 2179 35%
c - 31.22 1520 165 1  42  300  267 28% 23 337058 2178 35%
c i 31.84 1449 135 1  45  387  339 28% 24 337058 2177 35%
c i 32.17 1449 119 1  45  448  386 28% 23 337058 2176 35%
c i 32.20 1449 117 1  45  458  394 28% 23 337058 2175 35%
c i 32.21 1449 117 1  45  464  396 28% 23 337058 2173 35%
c i 32.30 1449 115 1  48  484  413 28% 23 337058 2172 35%
c i 32.62 1450 111 1  55  520  444 28% 24 337058 2171 35%
c i 33.14 1450 100 1  59  628  540 28% 24 337058 2170 35%
c i 33.21 1450 100 1  60  645  553 28% 24 337058 2169 35%
c i 33.44 1451 100 1  65  665  572 28% 24 337058 2164 35%
c i 33.81 1451 101 1  70  692  593 28% 25 337058 2156 35%
c i 34.51 1452 97 1  82  761  657 28% 25 337058 2155 35%
c i 34.66 1452 92 1  82  814  700 28% 24 337058 2154 35%
c i 34.93 1452 91 1  82  865  737 28% 24 337058 2153 35%
c 
c  seconds    reductions  redundant   irredundant
c          MB     restarts       trail       variables
c            level   conflicts       glue         remaining
c 
c i 35.08 1452 91 1  83  893  761 28% 24 337058 2152 35%
c } 35.84 1452 90 1  97 1000  856 28% 24 337058 2152 35%
c [ 35.84 1452  0 1  97 1000  856  0% 0 337058 2152 35%
c O 35.91 1452 34 1  97 1004  860 29% 14 337058 2152 35%
c i 36.23 1452 16 1  97 1206 1005 30% 13 337058 2151 35%
c - 36.84 1587 16 2  97 1216  910 30% 13 336835 2151 35%
c i 37.07 1587 17 2  97 1341 1003 30% 14 336835 2150 35%
c i 37.16 1587 18 2  97 1481 1114 31% 15 336835 2149 35%
c i 37.16 1587 18 2  97 1484 1116 31% 15 336835 2148 35%
c - 38.13 1586 21 3  98 2590 1396 30% 18 336826 2148 35%
c ] 38.68 1586 22 3  98 3000 1652 44% 19 336826 2148 35%
c { 38.68 1586 90 3  98 3000 1652 80% 24 336826 2148 35%
c F 38.71 1586 89 3  98 3007 1659 80% 24 336826 2148 35%
c i 39.69 1586 75 3  98 3291 1876 71% 22 336826 2147 35%
c i 40.17 1586 64 3  98 3569 2074 66% 20 336826 2146 35%
c i 41.33 1586 58 3 123 3951 2340 61% 21 336826 2137 35%
c i 42.01 1586 59 3 145 4034 2417 60% 21 336826 2128 35%
c - 43.68 1583 55 4 161 4422 1972 58% 21 336607 2128 35%
c d 49.26 1493 60 4 276 5000 2470 55% 25 321248 2123 34%
c 2 49.32 1493 60 4 276 5000 3383 55% 25 321248 2123 34%
c 
c  seconds    reductions  redundant   irredundant
c          MB     restarts       trail       variables
c            level   conflicts       glue         remaining
c 
c p 55.40 1493 60 4 276 5000 5744 55% 25 321248 2088 34%
c d 55.80 1493 60 4 276 5000 5735 55% 25 321154 2087 34%
c # 57.19 1493 53 4 316 6014 6487 52% 24 321154 2087 34%
c - 60.29 1364 52 5 394 6712 3146 51% 25 321154 2087 34%
c } 60.50 1364 51 5 398 7000 3340 51% 24 321154 2087 34%
c [ 60.50 1364 22 5 398 7000 3340 44% 19 321154 2087 34%
c - 62.15 1365 23 6 400 9424 3176 47% 19 321154 2087 34%
c I 62.76 1365 23 6 400 10015 3525 47% 19 321154 2087 34%
c - 66.48 1365 30 7 402 12588 4159 45% 22 321154 2087 34%
c ] 70.50 1365 33 7 403 15002 6114 46% 25 321154 2087 34%
c { 70.50 1365 51 7 403 15002 6114 51% 24 321154 2087 34%
c p 72.84 1365 51 7 403 15002 9564 51% 24 321154 2087 34%
c B 73.15 1365 51 7 403 15019 9579 51% 24 321154 2087 34%
c - 74.94 1365 47 8 445 16211 5241 50% 24 321154 2087 34%
c s 76.85 1365 39 8 445 19001 7236 48% 22 318563 2087 34%
c v 81.83 1365 39 8 445 19001 7236 48% 22 318556 2087 34%
c w 81.95 1365 39 8 445 19001 7232 48% 22 318556 2087 34%
c t 81.96 1365 39 8 445 19001 7231 48% 22 318552 2087 34%
c e 83.05 1366 39 8 445 19001 6711 48% 22 316213 792 13%
c s 83.17 1366 39 8 445 19001 6711 48% 22 312010 792 13%
c 
c  seconds    reductions   redundant   irredundant
c          MB     restarts        trail       variables
c            level    conflicts       glue        remaining
c 
c - 85.46 1366 36 9 449 20279 5239 69% 21 312010 792 13%
c W 86.37 1366 35 9 449 21020 5620 70% 21 312010 792 13%
c - 92.20 1366 33 10 605 24761 5824 70% 20 312010 792 13%
c F 100.28 1366 33 10 823 28022 8184 70% 21 312010 792 13%
c - 104.18 1366 32 11 866 29694 6569 70% 20 312010 792 13%
c p 106.50 1366 32 11 866 30003 8751 70% 20 312010 792 13%
c } 108.56 1366 32 11 935 31002 9445 70% 20 312010 792 13%
c [ 108.56 1366 33 11 935 31002 9445 124% 25 312010 792 13%
c - 110.63 1366 31 12 937 35073 7396 106% 24 312010 792 13%
c B 111.12 1366 30 12 938 36024 8037 103% 24 312010 792 13%
c - 115.58 1366 30 13 941 40903 7885 94% 24 312010 792 13%
c W 119.72 1366 30 13 942 45025 10661 89% 24 312010 792 13%
c - 121.59 1366 30 14 943 47178 8299 87% 25 312010 792 13%
c p 125.27 1366 32 14 943 50004 12398 85% 27 312010 792 13%
c - 127.84 1366 33 15 943 53902 8809 83% 28 312010 792 13%
c O 128.58 1366 33 15 944 55026 9568 83% 28 312010 792 13%
c - 131.48 1366 32 16 949 61074 9447 81% 27 312010 792 13%
c ] 132.05 1366 32 16 949 62513 10510 80% 27 312010 792 13%
c 1 132.05 1366 32 16 949 62513 10510 80% 27 312010 792 13%
c 
c --- [ writing output ] -----------------------------------------------------
c 
c writing simplified CNF to DIMACS file 'simp/45.cubes144.adj.simp1'
c * 132.05 1366 32 16 949 62513 10510 80% 27 312010 792 13%
c opening file to write 'simp/45.cubes144.adj.simp1'
c writing 'p cnf 6160 312010' header
c closing file 'simp/45.cubes144.adj.simp1'
c after writing 143495454 bytes 136.8 MB
c wrote 312010 clauses in 1.08 seconds process time
c 
c --- [ writing extension ] --------------------------------------------------
c 
c writing extension stack to 'simp/45.cubes144.adj.ext1'
c opening file to write 'simp/45.cubes144.adj.ext1'
c closing file 'simp/45.cubes144.adj.ext1'
c after writing 85162 bytes 0.1 MB
c wrote 3849 witnesses in 0.83 seconds process time
c 
c --- [ result ] -------------------------------------------------------------
c 
s SATISFIABLE
c 
c --- [ run-time profiling ] -------------------------------------------------
c 
c process time taken by individual solving procedures
c (percentage relative to process time for solving)
c 
c        92.85   82.07% search
c        56.78   50.19% unstable
c        33.45   29.56% stable
c        20.28   17.93% simplify
c        18.92   16.72% parse
c        11.79   10.42% probe
c         5.07    4.48% vivify
c         2.03    1.79% elim
c         1.54    1.36% walk
c         1.08    0.96% lucky
c         0.24    0.21% subsume
c         0.16    0.14% ternary
c   =================================
c       113.13   84.45% solve
c 
c last line shows process time for solving
c (percentage relative to total process time)
c 
c --- [ statistics ] ---------------------------------------------------------
c 
c chronological:             11043        17.67 %  of conflicts
c conflicts:                 62513       552.56    per second
c decisions:                130377      1152.42    per second
c eliminated:                 1295        21.02 %  of all variables
c fixed:                       923        14.98 %  of all variables
c learned:                   61239        97.96 %  per conflict
c learned_lits:           10460819       100.00 %  learned literals
c minimized:                     0         0.00 %  learned literals
c shrunken:                5837357        55.80 %  learned literals
c minishrunken:            1051599        10.05 %  learned literals
c propagations:            5335563         0.05 M  per second
c reduced:                   33357        53.36 %  per conflict
c rephased:                     10      6251.30    interval
c restarts:                    949        65.87    interval
c stabilizing:                   3        66.41 %  of conflicts
c substituted:                   6         0.10 %  of all variables
c subsumed:                  23713         0.70 %  of all clauses
c strengthened:               4574         0.13 %  of all clauses
c ternary:                    2773         0.67 %  of resolved
c vivified:                     22         0.00 %  of all clauses
c walked:                        2     31256.50    interval
c weakened:                   2926         3.05    average size
c 
c seconds are measured in process time for solving
c 
c --- [ resources ] ----------------------------------------------------------
c 
c total process time since initialization:       133.96    seconds
c total real time since initialization:         6999.91    seconds
c maximum resident set size of process:         1720.16    MB
c 
c --- [ shutting down ] ------------------------------------------------------
c 
c exit 10
WARNING! DIMACS header mismatch: wrong number of variables.
============================[ Problem Statistics ]=============================
|                                                                             |
|  Number of variables:          3498                                         |
|  Number of clauses:          312012                                         |
|  Parse time:                   1.99 s                                       |
|  Simplification time:          0.05 s                                       |
|                                                                             |
============================[ Search Statistics ]====================================================
| Conflicts |          ORIGINAL         |          LEARNT          | Num Sols |      SUBGRAPHS      |
|           |    Vars  Clauses Literals |    Limit  Clauses Lit/Cl |          | Canonical Noncanon. |
=====================================================================================================
|       105 |    3398   312017 30672328 |     2000      105    119 |        0 |        11         5 |
|       324 |    3398   312086 30673485 |     2000      324     81 |        0 |        32        74 |
|       552 |    3398   312089 30673604 |     2000      552     87 |        0 |        36        77 |
|       891 |    3398   312091 30673637 |     2000      891     83 |        0 |        45        79 |
|      1437 |    3398   312131 30674236 |     2000     1437     81 |        0 |        68       119 |
|      2285 |    3398   312220 30675300 |     3601     1286     46 |        0 |       108       208 |
|      3476 |    3398   312272 30676250 |     3601     2477     68 |        0 |       141       260 |
|      5338 |    3398   312426 30679111 |     5003     2541     46 |        0 |       203       414 |
|      7983 |    3398   312509 30680964 |     6304     2687     31 |        0 |       259       497 |
|     12023 |    3398   312705 30684271 |     7553     3576     33 |        0 |       327       693 |
|     18918 |    3398   313834 30703860 |     8780     6698     56 |        0 |       755      1822 |
|     27893 |    3398   314160 30709265 |    11206     6299     31 |        0 |       849      2148 |
|     41480 |    3398   314773 30719027 |    13606     8086     32 |        0 |      1079      2761 |
|     61732 |    3398   315564 30731696 |    16006    14138     51 |        0 |      1413      3552 |
|     91431 |    3398   316071 30740511 |    19607    18038     48 |        0 |      1604      4059 |
|    136225 |    3398   317076 30757481 |    24404    20029     46 |        0 |      1956      5064 |
|    203166 |    3398   318333 30776267 |    30406    19972     35 |        0 |      2255      6321 |
|    302779 |    3398   319420 30794065 |    37613    19392     18 |        0 |      2549      7408 |
|    451432 |    3398   320284 30816675 |    46023    23855     20 |        0 |      2780      8272 |
|    674660 |    3398   321829 30853487 |    55620    46280     52 |        0 |      3274      9817 |
|   1015958 |    3398   330602 31051914 |    68813    48771     44 |        0 |      5734     18590 |
|   1519120 |    3398   334976 31179649 |    84421    57941     42 |        0 |      6909     22964 |
|   2277406 |    3398   345080 31382688 |   103610    69016     37 |        1 |      9797     33067 |
|   3423660 |    3393   363030 31756939 |   126981    64641     32 |        1 |     20504     57047 |
|   5126860 |    3393   382819 32207388 |   155222   149282     60 |        2 |     26811     76835 |
|   7689355 |    3393   420198 32884110 |   191224   122779     36 |        3 |     38339    114213 |
=====================================================================================================
Number of solutions   : 3
Canonical subgraphs   : 41012          (8 /sec)
          order  3    : 1              (142857 /sec)
          order  4    : 1              (500000 /sec)
          order  5    : 1              (200000 /sec)
          order  6    : 1              (55556 /sec)
          order  7    : 1              (8772 /sec)
          order  8    : 1              (1002 /sec)
          order  9    : 2              (150 /sec)
          order 10    : 7              (37 /sec)
          order 11    : 36             (12 /sec)
          order 12    : 301            (5 /sec)
          order 13    : 1666           (6 /sec)
          order 14    : 4294           (7 /sec)
          order 15    : 6547           (9 /sec)
          order 16    : 25524          (8 /sec)
          order 17    : 2222           (7 /sec)
          order 18    : 340            (7 /sec)
          order 19    : 50             (6 /sec)
          order 20    : 8              (4 /sec)
          order 21    : 6              (3 /sec)
          order 22    : 3              (0 /sec)
Noncanonical subgraphs: 124715         (94 /sec)
          order  3    : 0              (-nan /sec)
          order  4    : 0              (-nan /sec)
          order  5    : 0              (-nan /sec)
          order  6    : 0              (-nan /sec)
          order  7    : 0              (-nan /sec)
          order  8    : 0              (-nan /sec)
          order  9    : 0              (-nan /sec)
          order 10    : 0              (-nan /sec)
          order 11    : 0              (-nan /sec)
          order 12    : 0              (-nan /sec)
          order 13    : 5444           (7909 /sec)
          order 14    : 10850          (2498 /sec)
          order 15    : 34741          (437 /sec)
          order 16    : 8834           (354 /sec)
          order 17    : 64766          (53 /sec)
          order 18    : 75             (35 /sec)
          order 19    : 2              (26 /sec)
          order 20    : 0              (-nan /sec)
          order 21    : 0              (-nan /sec)
Canonicity checking   : 5159.46 s
Noncanonicity checking: 1331.02 s
Total canonicity time : 6490.48 s
database reductions   : 184
restarts              : 16382
conflicts             : 10522329       (808 /sec)
decisions             : 13508580       (0.00 % random) (1037 /sec)
propagations          : 511435752      (39256 /sec)
conflict literals     : 948762901      (56.08 % deleted)
actual reward         : 0.268653
Memory used           : 495.00 MB
CPU time              : 13028.1 s

UNSATISFIABLE
